networks/zoo_72_756/zoo_72_756.txt
Number of groups: 33
Flow 9: {6 10} {10 22} {22 12} {12 48} 
Flow 23: {1 4} {4 28} {28 29} {29 65} 
Flow 33: {2 1} {1 7} {7 5} {5 6} {6 42} 
Flow 49: {29 30} {30 31} {31 32} {32 68} 
Flow 79: {27 36} {36 35} {35 71} 
Flow 128: {8 7} {7 43} 
Flow 144: {24 23} {23 18} {18 17} {17 53} 
Flow 154: {35 32} {32 31} {31 30} {30 66} 
Flow 175: {13 14} {14 15} {15 34} {34 33} {33 69} 
Flow 185: {18 23} {23 24} {24 9} {9 45} 
Flow 219: {36 27} {27 29} {29 28} {28 4} {4 40} 
Flow 262: {16 35} {35 34} {34 70} 
Flow 278: {17 18} {18 13} {13 12} {12 22} {22 58} 
Flow 289: {28 3} {3 39} 
Flow 316: {22 10} {10 35} {35 36} {36 72} 
Flow 320: {21 9} {9 6} {6 5} {5 41} 
Flow 358: {20 19} {19 25} {25 23} {23 59} 
Flow 412: {23 25} {25 61} 
Flow 464: {25 19} {19 20} {20 21} {21 57} 
Flow 485: {26 19} {19 55} 
Flow 518: {4 1} {1 2} {2 38} 
Flow 529: {15 14} {14 50} 
Flow 580: {14 13} {13 49} 
Flow 582: {32 33} {33 34} {34 15} {15 51} 
Flow 612: {30 29} {29 27} {27 63} 
Flow 652: {33 32} {32 35} {35 10} {10 46} 
Flow 670: {7 1} {1 37} 
Flow 682: {34 35} {35 16} {16 52} 
Flow 689: {9 24} {24 60} 
Flow 705: {5 7} {7 8} {8 44} 
Flow 708: {12 13} {13 11} {11 47} 
Flow 715: {13 18} {18 54} 
Flow 717: {10 6} {6 9} {9 21} {21 20} {20 56} 
Time taken running everything: 16 seconds
