networks/zoo_72_756/standard/zoo_72_756.sol
<?xml version = "1.0" encoding="UTF-8" standalone="yes"?>
<CPLEXSolution version="1.2">
 <header
   problemName="networks/zoo_72_756/zoo_72_756.lp"
   solutionName="incumbent"
   solutionIndex="-1"
   objectiveValue="33"
   solutionTypeValue="3"
   solutionTypeString="primal"
   solutionStatusValue="101"
   solutionStatusString="integer optimal solution"
   solutionMethodString="mip"
   primalFeasible="1"
   dualFeasible="1"
   MIPNodes="16"
   MIPIterations="3674"
   writeLevel="3"/>
 <quality
   epInt="1.0000000000000001e-05"
   epRHS="9.9999999999999995e-07"
   maxIntInfeas="1.000000082740371e-09"
   maxPrimalInfeas="6.000000496442226e-09"
   maxX="4.0000000030000002"
   maxSlack="10.000000003"/>
 <variables>
  <variable name="Y(9,12)" index="563" value="1"/>
  <variable name="Y(14,17)" index="913" value="1"/>
  <variable name="Y(16,20)" index="1054" value="1"/>
  <variable name="Y(21,25)" index="1404" value="1"/>
  <variable name="Y(25,32)" index="1687" value="1"/>
  <variable name="Y(32,5)" index="2143" value="1"/>
  <variable name="Y(85,19)" index="5814" value="1"/>
  <variable name="Y(128,7)" index="8769" value="1"/>
  <variable name="Y(153,29)" index="10516" value="1"/>
  <variable name="Y(154,30)" index="10586" value="1"/>
  <variable name="Y(163,1)" index="11178" value="1.0000000007500001"/>
  <variable name="Y(167,14)" index="11467" value="1"/>
  <variable name="Y(185,9)" index="12704" value="1"/>
  <variable name="Y(219,4)" index="15045" value="1"/>
  <variable name="Y(246,10)" index="16914" value="1"/>
  <variable name="Y(278,22)" index="19134" value="1"/>
  <variable name="Y(316,36)" index="21770" value="1"/>
  <variable name="Y(384,24)" index="26450" value="1"/>
  <variable name="Y(422,3)" index="29051" value="1"/>
  <variable name="Y(464,21)" index="31967" value="1"/>
  <variable name="Y(477,6)" index="32849" value="1.00000000025"/>
  <variable name="Y(489,23)" index="33694" value="1"/>
  <variable name="Y(494,33)" index="34049" value="1"/>
  <variable name="Y(518,2)" index="35674" value="1"/>
  <variable name="Y(568,34)" index="39156" value="1"/>
  <variable name="Y(580,13)" index="39963" value="1"/>
  <variable name="Y(582,15)" index="40103" value="1"/>
  <variable name="Y(612,27)" index="42185" value="1"/>
  <variable name="Y(668,35)" index="46057" value="1"/>
  <variable name="Y(670,1)" index="46161" value="-7.5000006205527825e-10"/>
  <variable name="Y(674,6)" index="46442" value="-2.5000002068509275e-10"/>
  <variable name="Y(682,16)" index="47004" value="1"/>
  <variable name="Y(705,8)" index="48583" value="1"/>
  <variable name="Y(708,11)" index="48793" value="1"/>
  <variable name="Y(715,18)" index="49283" value="1"/>
  <variable name="X(1,2,518)" index="52681" value="1"/>
  <variable name="X(1,4,422)" index="53341" value="1"/>
  <variable name="X(1,7,32)" index="53707" value="1"/>
  <variable name="X(1,37,163)" index="54594" value="1.0000000007500001"/>
  <variable name="X(1,37,670)" index="55101" value="-7.5000006205527825e-10"/>
  <variable name="X(2,1,32)" index="55219" value="1"/>
  <variable name="X(2,38,518)" index="56461" value="1"/>
  <variable name="X(3,39,422)" index="57121" value="1"/>
  <variable name="X(4,1,518)" index="57973" value="1"/>
  <variable name="X(4,28,422)" index="58633" value="1"/>
  <variable name="X(4,40,219)" index="59186" value="1"/>
  <variable name="X(5,6,9)" index="59732" value="1"/>
  <variable name="X(5,7,163)" index="60642" value="1"/>
  <variable name="X(5,41,32)" index="61267" value="1"/>
  <variable name="X(6,5,163)" index="62154" value="1"/>
  <variable name="X(6,9,16)" index="62763" value="1"/>
  <variable name="X(6,10,9)" index="63512" value="1"/>
  <variable name="X(6,42,477)" index="64736" value="1.00000000025"/>
  <variable name="X(6,42,674)" index="64933" value="-2.5000002068509275e-10"/>
  <variable name="X(7,1,163)" index="65178" value="1"/>
  <variable name="X(7,5,32)" index="65803" value="1"/>
  <variable name="X(7,8,705)" index="67232" value="1"/>
  <variable name="X(7,43,128)" index="67411" value="1"/>
  <variable name="X(8,7,128)" index="68167" value="1"/>
  <variable name="X(8,44,705)" index="69500" value="1"/>
  <variable name="X(9,6,426)" index="69977" value="-2.5000002068509275e-10"/>
  <variable name="X(9,6,477)" index="70028" value="1.00000000025"/>
  <variable name="X(9,21,16)" index="70323" value="1"/>
  <variable name="X(9,24,384)" index="71447" value="1"/>
  <variable name="X(9,45,185)" index="72004" value="1"/>
  <variable name="X(10,6,163)" index="72738" value="1.0000000010000001"/>
  <variable name="X(10,6,674)" index="73249" value="-1.000000082740371e-09"/>
  <variable name="X(10,22,9)" index="73340" value="1"/>
  <variable name="X(10,35,316)" index="74403" value="1"/>
  <variable name="X(10,46,246)" index="75089" value="1"/>
  <variable name="X(11,47,708)" index="76307" value="1"/>
  <variable name="X(12,13,708)" index="77063" value="1"/>
  <variable name="X(12,22,278)" index="77389" value="1"/>
  <variable name="X(12,48,9)" index="77876" value="1"/>
  <variable name="X(13,11,708)" index="79331" value="1"/>
  <variable name="X(13,12,278)" index="79657" value="1"/>
  <variable name="X(13,14,167)" index="80302" value="1"/>
  <variable name="X(13,18,715)" index="81606" value="1"/>
  <variable name="X(13,49,580)" index="82227" value="1"/>
  <variable name="X(14,13,580)" index="82983" value="1"/>
  <variable name="X(14,15,494)" index="83653" value="1"/>
  <variable name="X(14,50,167)" index="84082" value="1"/>
  <variable name="X(15,14,580)" index="85251" value="1"/>
  <variable name="X(15,34,494)" index="85921" value="1"/>
  <variable name="X(15,51,582)" index="86765" value="1"/>
  <variable name="X(16,35,246)" index="87185" value="1"/>
  <variable name="X(16,52,682)" index="88377" value="1"/>
  <variable name="X(17,18,278)" index="88729" value="1"/>
  <variable name="X(17,53,14)" index="89221" value="1"/>
  <variable name="X(18,13,278)" index="90241" value="1"/>
  <variable name="X(18,17,14)" index="90733" value="1"/>
  <variable name="X(18,23,185)" index="91660" value="1"/>
  <variable name="X(18,54,715)" index="92946" value="1"/>
  <variable name="X(19,20,464)" index="93451" value="1"/>
  <variable name="X(19,25,489)" index="94232" value="1"/>
  <variable name="X(19,55,85)" index="94584" value="1"/>
  <variable name="X(20,19,85)" index="95340" value="1"/>
  <variable name="X(20,21,464)" index="96475" value="1"/>
  <variable name="X(20,56,16)" index="96783" value="1"/>
  <variable name="X(21,9,389)" index="97912" value="-2.4999996517394152e-10"/>
  <variable name="X(21,9,477)" index="98000" value="1.00000000025"/>
  <variable name="X(21,20,16)" index="98295" value="1"/>
  <variable name="X(21,57,464)" index="99499" value="1"/>
  <variable name="X(22,10,316)" index="100107" value="1"/>
  <variable name="X(22,12,9)" index="100556" value="1"/>
  <variable name="X(22,58,278)" index="101581" value="1"/>
  <variable name="X(23,18,14)" index="102073" value="1"/>
  <variable name="X(23,24,185)" index="103000" value="1"/>
  <variable name="X(23,25,21)" index="103592" value="1"/>
  <variable name="X(23,59,489)" index="104816" value="1"/>
  <variable name="X(24,9,185)" index="105268" value="1"/>
  <variable name="X(24,23,14)" index="105853" value="1"/>
  <variable name="X(24,60,384)" index="106979" value="1"/>
  <variable name="X(25,19,464)" index="107815" value="1"/>
  <variable name="X(25,23,489)" index="108596" value="1"/>
  <variable name="X(25,61,21)" index="108884" value="1"/>
  <variable name="X(26,19,489)" index="110108" value="1"/>
  <variable name="X(27,29,153)" index="110528" value="1"/>
  <variable name="X(27,36,568)" index="111699" value="1"/>
  <variable name="X(27,63,612)" index="112499" value="1"/>
  <variable name="X(28,3,422)" index="113065" value="1"/>
  <variable name="X(28,4,219)" index="113618" value="1"/>
  <variable name="X(28,29,25)" index="114180" value="1"/>
  <variable name="X(29,27,612)" index="115523" value="1"/>
  <variable name="X(29,28,219)" index="115886" value="1"/>
  <variable name="X(29,30,25)" index="116448" value="1"/>
  <variable name="X(29,65,153)" index="117332" value="1"/>
  <variable name="X(30,29,612)" index="118547" value="1"/>
  <variable name="X(30,31,25)" index="118716" value="1"/>
  <variable name="X(30,66,154)" index="119601" value="1"/>
  <variable name="X(31,30,154)" index="120357" value="1"/>
  <variable name="X(31,32,25)" index="120984" value="1"/>
  <variable name="X(32,31,154)" index="121869" value="1"/>
  <variable name="X(32,33,582)" index="123053" value="1"/>
  <variable name="X(32,35,668)" index="123895" value="1"/>
  <variable name="X(32,68,25)" index="124008" value="1"/>
  <variable name="X(33,32,668)" index="125407" value="1"/>
  <variable name="X(33,34,582)" index="126077" value="1"/>
  <variable name="X(33,69,494)" index="126745" value="1"/>
  <variable name="X(34,15,582)" index="127589" value="1"/>
  <variable name="X(34,33,494)" index="128257" value="1"/>
  <variable name="X(34,35,682)" index="129201" value="1"/>
  <variable name="X(34,70,568)" index="129843" value="1"/>
  <variable name="X(35,10,246)" index="130277" value="1"/>
  <variable name="X(35,16,682)" index="131469" value="1"/>
  <variable name="X(35,32,154)" index="131697" value="1"/>
  <variable name="X(35,34,568)" index="132867" value="1"/>
  <variable name="X(35,36,316)" index="133371" value="1"/>
  <variable name="X(35,71,668)" index="134479" value="1"/>
  <variable name="X(36,27,153)" index="134720" value="1"/>
  <variable name="X(36,35,568)" index="135891" value="1"/>
  <variable name="X(36,72,316)" index="136395" value="1"/>
  <variable name="C(9,6)" index="136867" value="1"/>
  <variable name="C(9,10)" index="136868" value="2"/>
  <variable name="C(9,22)" index="136869" value="3"/>
  <variable name="C(9,12)" index="136870" value="4"/>
  <variable name="C(14,23)" index="136909" value="1"/>
  <variable name="C(14,18)" index="136910" value="2"/>
  <variable name="C(14,17)" index="136911" value="3"/>
  <variable name="C(16,9)" index="136924" value="1"/>
  <variable name="C(16,21)" index="136925" value="2"/>
  <variable name="C(16,20)" index="136926" value="3"/>
  <variable name="C(21,25)" index="136959" value="1"/>
  <variable name="C(25,29)" index="136977" value="1"/>
  <variable name="C(25,30)" index="136978" value="2"/>
  <variable name="C(25,31)" index="136979" value="3"/>
  <variable name="C(25,32)" index="136980" value="4"/>
  <variable name="C(32,1)" index="137014" value="1"/>
  <variable name="C(32,7)" index="137015" value="2"/>
  <variable name="C(32,5)" index="137016" value="3"/>
  <variable name="C(85,19)" index="137364" value="1"/>
  <variable name="C(128,7)" index="137576" value="1"/>
  <variable name="C(153,27)" index="137693" value="1"/>
  <variable name="C(153,29)" index="137694" value="2.0000000020000002"/>
  <variable name="C(154,32)" index="137699" value="1"/>
  <variable name="C(154,31)" index="137700" value="2"/>
  <variable name="C(154,30)" index="137701" value="3"/>
  <variable name="C(163,6)" index="137743" value="1.0000000010000001"/>
  <variable name="C(163,5)" index="137744" value="2.0000000030000002"/>
  <variable name="C(163,7)" index="137745" value="3.0000000030000002"/>
  <variable name="C(163,1)" index="137746" value="4.0000000030000002"/>
  <variable name="C(167,14)" index="137761" value="1"/>
  <variable name="C(185,23)" index="137866" value="1"/>
  <variable name="C(185,24)" index="137867" value="2"/>
  <variable name="C(185,9)" index="137868" value="3"/>
  <variable name="C(219,28)" index="138039" value="1"/>
  <variable name="C(219,4)" index="138040" value="2"/>
  <variable name="C(246,35)" index="138172" value="1"/>
  <variable name="C(246,10)" index="138173" value="2"/>
  <variable name="C(278,18)" index="138346" value="1"/>
  <variable name="C(278,13)" index="138347" value="2"/>
  <variable name="C(278,12)" index="138348" value="3"/>
  <variable name="C(278,22)" index="138349" value="4"/>
  <variable name="C(316,10)" index="138568" value="1"/>
  <variable name="C(316,35)" index="138569" value="1.9999999999999982"/>
  <variable name="C(316,36)" index="138570" value="2.9999999999999982"/>
  <variable name="C(384,24)" index="138973" value="1"/>
  <variable name="C(422,4)" index="139188" value="1.0000000020000002"/>
  <variable name="C(422,28)" index="139189" value="2.0000000020000002"/>
  <variable name="C(422,3)" index="139190" value="3.0000000020000002"/>
  <variable name="C(464,19)" index="139406" value="1"/>
  <variable name="C(464,20)" index="139407" value="2"/>
  <variable name="C(464,21)" index="139408" value="3"/>
  <variable name="C(477,9)" index="139504" value="1.00000000025"/>
  <variable name="C(477,6)" index="139505" value="2.0000000005"/>
  <variable name="C(489,19)" index="139573" value="1"/>
  <variable name="C(489,25)" index="139574" value="2"/>
  <variable name="C(489,23)" index="139575" value="3"/>
  <variable name="C(494,15)" index="139616" value="1"/>
  <variable name="C(494,34)" index="139617" value="2"/>
  <variable name="C(494,33)" index="139618" value="3"/>
  <variable name="C(518,1)" index="139753" value="1"/>
  <variable name="C(518,2)" index="139754" value="2"/>
  <variable name="C(568,27)" index="140070" value="1.000000082740371e-09"/>
  <variable name="C(568,36)" index="140071" value="1.0000000010000001"/>
  <variable name="C(568,35)" index="140072" value="2.0000000010000001"/>
  <variable name="C(568,34)" index="140073" value="3.0000000010000001"/>
  <variable name="C(580,14)" index="140138" value="1"/>
  <variable name="C(580,13)" index="140139" value="2"/>
  <variable name="C(582,33)" index="140150" value="1"/>
  <variable name="C(582,34)" index="140151" value="2"/>
  <variable name="C(582,15)" index="140152" value="3"/>
  <variable name="C(612,29)" index="140341" value="1"/>
  <variable name="C(612,27)" index="140342" value="2"/>
  <variable name="C(668,32)" index="140623" value="1"/>
  <variable name="C(668,35)" index="140624" value="2"/>
  <variable name="C(674,6)" index="140658" value="-1.000000082740371e-09"/>
  <variable name="C(682,35)" index="140688" value="1"/>
  <variable name="C(682,16)" index="140689" value="2"/>
  <variable name="C(705,8)" index="140806" value="1"/>
  <variable name="C(708,13)" index="140817" value="1"/>
  <variable name="C(708,11)" index="140818" value="2"/>
  <variable name="C(715,18)" index="140849" value="1"/>
 </variables>
</CPLEXSolution>
